\* Problem: investimento *\

Maximize
 obj: + 0.0865x1 + 0.095x2 + 0.10x3 + 0.0875x4 + 0.0925x5 + 0.09x6

Subject To
 restr1:  x1 <= 187500
 restr2:  x2 <= 187500
 restr3:  x3 <= 187500
 restr4:  x4 <= 187500
 restr5:  x5 <= 187500
 restr6:  x6 <= 187500
 restr7:  x1 + x2 + x4 + x6 >= 375000
 restr8:  x2 + x3 + x5 <= 262500
 restr9:  x1 + x2 + x3 + x4 + x5 + x6 = 750000

Bounds

